\* Linear_segmentation *\
Minimize
cost: 0.301611831614 x_0 + 0.27872199485 x_1 + 0.687292689181 x_10
 + 0.21334280282 x_11 + 0.353261076868 x_12 + 0.380142052982 x_13
 + 0.440332426487 x_14 + 0.473087087848 x_15 + 0.551136392149 x_16
 + 0.584507446064 x_17 + 0.595968131792 x_18 + 0.604008774693 x_19
 + 0.40107785044 x_2 + 0.617454205802 x_20 + 0.388548191309 x_21
 + 0.412315118052 x_22 + 0.468806922642 x_23 + 0.495181279576 x_24
 + 0.568235782061 x_25 + 0.594628735711 x_26 + 0.599183008799 x_27
 + 0.600979310253 x_28 + 0.608881921719 x_29 + 0.432369326248 x_3
 + 0.447416828228 x_30 + 0.496796650649 x_31 + 0.514096878257 x_32
 + 0.580021266855 x_33 + 0.597750323841 x_34 + 0.594298305727 x_35
 + 0.589121861769 x_36 + 0.590968276331 x_37 + 0.495158376867 x_38
 + 0.500018782517 x_39 + 0.493231832637 x_4 + 0.557541855135 x_40
 + 0.565662147742 x_41 + 0.554088354383 x_42 + 0.542324996765 x_43
 + 0.538803353097 x_44 + 0.467974358272 x_45 + 0.516428089331 x_46
 + 0.514555207575 x_47 + 0.495304370204 x_48 + 0.477686686576 x_49
 + 0.529470135455 x_5 + 0.469565824451 x_50 + 0.485767122158 x_51
 + 0.472357611347 x_52 + 0.445237431166 x_53 + 0.421778149428 x_54
 + 0.408813257959 x_55 + 0.428068247178 x_56 + 0.394148598826 x_57
 + 0.36591118221 x_58 + 0.348505676446 x_59 + 0.606703703789 x_6
 + 0.240768970114 x_60 + 0.218895183655 x_61 + 0.204742757154 x_62
 + 0.235037069932 x_63 + 0.216522616778 x_64 + 0.186108472769 x_65
 + 0.643609080169 x_7 + 0.659319021241 x_8 + 0.671042221055 x_9
Subject To
Cnstr0: x_0 + x_1 + x_10 + x_2 + x_3 + x_4 + x_5 + x_6 + x_7 + x_8 + x_9 >= 1
Cnstr1: x_0 + x_1 + x_10 + x_11 + x_12 + x_13 + x_14 + x_15 + x_16 + x_17
 + x_18 + x_19 + x_2 + x_20 + x_3 + x_4 + x_5 + x_6 + x_7 + x_8 + x_9 >= 1
Cnstr10: x_1 + x_10 + x_11 + x_12 + x_13 + x_14 + x_15 + x_16 + x_17 + x_18
 + x_19 + x_2 + x_20 + x_21 + x_22 + x_23 + x_24 + x_25 + x_26 + x_27 + x_28
 + x_29 + x_3 + x_30 + x_31 + x_32 + x_33 + x_34 + x_35 + x_36 + x_37 + x_38
 + x_39 + x_4 + x_40 + x_41 + x_42 + x_43 + x_44 + x_45 + x_46 + x_47 + x_48
 + x_49 + x_5 + x_50 + x_51 + x_52 + x_53 + x_54 + x_55 + x_56 + x_57 + x_58
 + x_59 + x_6 + x_60 + x_61 + x_62 + x_63 + x_64 + x_65 + x_7 + x_8 + x_9 >= 1
Cnstr11: x_10 + x_12 + x_13 + x_14 + x_15 + x_16 + x_17 + x_18 + x_19 + x_2
 + x_20 + x_21 + x_22 + x_23 + x_24 + x_25 + x_26 + x_27 + x_28 + x_29 + x_3
 + x_30 + x_31 + x_32 + x_33 + x_34 + x_35 + x_36 + x_37 + x_38 + x_39 + x_4
 + x_40 + x_41 + x_42 + x_43 + x_44 + x_45 + x_46 + x_47 + x_48 + x_49 + x_5
 + x_50 + x_51 + x_52 + x_53 + x_54 + x_55 + x_56 + x_57 + x_58 + x_59 + x_6
 + x_60 + x_61 + x_62 + x_63 + x_64 + x_65 + x_7 + x_8 + x_9 >= 1
Cnstr12: x_10 + x_13 + x_14 + x_15 + x_16 + x_17 + x_18 + x_19 + x_20 + x_22
 + x_23 + x_24 + x_25 + x_26 + x_27 + x_28 + x_29 + x_3 + x_30 + x_31 + x_32
 + x_33 + x_34 + x_35 + x_36 + x_37 + x_38 + x_39 + x_4 + x_40 + x_41 + x_42
 + x_43 + x_44 + x_45 + x_46 + x_47 + x_48 + x_49 + x_5 + x_50 + x_51 + x_52
 + x_53 + x_54 + x_55 + x_56 + x_57 + x_58 + x_59 + x_6 + x_60 + x_61 + x_62
 + x_63 + x_64 + x_65 + x_7 + x_8 + x_9 >= 1
Cnstr13: x_10 + x_14 + x_15 + x_16 + x_17 + x_18 + x_19 + x_20 + x_23 + x_24
 + x_25 + x_26 + x_27 + x_28 + x_29 + x_31 + x_32 + x_33 + x_34 + x_35 + x_36
 + x_37 + x_38 + x_39 + x_4 + x_40 + x_41 + x_42 + x_43 + x_44 + x_45 + x_46
 + x_47 + x_48 + x_49 + x_5 + x_50 + x_51 + x_52 + x_53 + x_54 + x_55 + x_56
 + x_57 + x_58 + x_59 + x_6 + x_60 + x_61 + x_62 + x_63 + x_64 + x_65 + x_7
 + x_8 + x_9 >= 1
Cnstr14: x_10 + x_15 + x_16 + x_17 + x_18 + x_19 + x_20 + x_24 + x_25 + x_26
 + x_27 + x_28 + x_29 + x_32 + x_33 + x_34 + x_35 + x_36 + x_37 + x_39 + x_40
 + x_41 + x_42 + x_43 + x_44 + x_45 + x_46 + x_47 + x_48 + x_49 + x_5 + x_50
 + x_51 + x_52 + x_53 + x_54 + x_55 + x_56 + x_57 + x_58 + x_59 + x_6 + x_60
 + x_61 + x_62 + x_63 + x_64 + x_65 + x_7 + x_8 + x_9 >= 1
Cnstr15: x_10 + x_16 + x_17 + x_18 + x_19 + x_20 + x_25 + x_26 + x_27 + x_28
 + x_29 + x_33 + x_34 + x_35 + x_36 + x_37 + x_40 + x_41 + x_42 + x_43 + x_44
 + x_46 + x_47 + x_48 + x_49 + x_50 + x_51 + x_52 + x_53 + x_54 + x_55 + x_56
 + x_57 + x_58 + x_59 + x_6 + x_60 + x_61 + x_62 + x_63 + x_64 + x_65 + x_7
 + x_8 + x_9 >= 1
Cnstr16: x_10 + x_17 + x_18 + x_19 + x_20 + x_26 + x_27 + x_28 + x_29 + x_34
 + x_35 + x_36 + x_37 + x_41 + x_42 + x_43 + x_44 + x_47 + x_48 + x_49 + x_50
 + x_52 + x_53 + x_54 + x_55 + x_56 + x_57 + x_58 + x_59 + x_60 + x_61 + x_62
 + x_63 + x_64 + x_65 + x_7 + x_8 + x_9 >= 1
Cnstr17: x_10 + x_18 + x_19 + x_20 + x_27 + x_28 + x_29 + x_35 + x_36 + x_37
 + x_42 + x_43 + x_44 + x_48 + x_49 + x_50 + x_53 + x_54 + x_55 + x_57 + x_58
 + x_59 + x_60 + x_61 + x_62 + x_63 + x_64 + x_65 + x_8 + x_9 >= 1
Cnstr18: x_10 + x_19 + x_20 + x_28 + x_29 + x_36 + x_37 + x_43 + x_44 + x_49
 + x_50 + x_54 + x_55 + x_58 + x_59 + x_61 + x_62 + x_63 + x_64 + x_65 + x_9
 >= 1
Cnstr19: x_10 + x_20 + x_29 + x_37 + x_44 + x_50 + x_55 + x_59 + x_62 + x_64
 + x_65 >= 1
Cnstr2: x_0 + x_1 + x_10 + x_11 + x_12 + x_13 + x_14 + x_15 + x_16 + x_17
 + x_18 + x_19 + x_2 + x_20 + x_21 + x_22 + x_23 + x_24 + x_25 + x_26 + x_27
 + x_28 + x_29 + x_3 + x_4 + x_5 + x_6 + x_7 + x_8 + x_9 >= 1
Cnstr3: x_0 + x_1 + x_10 + x_11 + x_12 + x_13 + x_14 + x_15 + x_16 + x_17
 + x_18 + x_19 + x_2 + x_20 + x_21 + x_22 + x_23 + x_24 + x_25 + x_26 + x_27
 + x_28 + x_29 + x_3 + x_30 + x_31 + x_32 + x_33 + x_34 + x_35 + x_36 + x_37
 + x_4 + x_5 + x_6 + x_7 + x_8 + x_9 >= 1
Cnstr4: x_0 + x_1 + x_10 + x_11 + x_12 + x_13 + x_14 + x_15 + x_16 + x_17
 + x_18 + x_19 + x_2 + x_20 + x_21 + x_22 + x_23 + x_24 + x_25 + x_26 + x_27
 + x_28 + x_29 + x_3 + x_30 + x_31 + x_32 + x_33 + x_34 + x_35 + x_36 + x_37
 + x_38 + x_39 + x_4 + x_40 + x_41 + x_42 + x_43 + x_44 + x_5 + x_6 + x_7
 + x_8 + x_9 >= 1
Cnstr5: x_0 + x_1 + x_10 + x_11 + x_12 + x_13 + x_14 + x_15 + x_16 + x_17
 + x_18 + x_19 + x_2 + x_20 + x_21 + x_22 + x_23 + x_24 + x_25 + x_26 + x_27
 + x_28 + x_29 + x_3 + x_30 + x_31 + x_32 + x_33 + x_34 + x_35 + x_36 + x_37
 + x_38 + x_39 + x_4 + x_40 + x_41 + x_42 + x_43 + x_44 + x_45 + x_46 + x_47
 + x_48 + x_49 + x_5 + x_50 + x_6 + x_7 + x_8 + x_9 >= 1
Cnstr6: x_0 + x_1 + x_10 + x_11 + x_12 + x_13 + x_14 + x_15 + x_16 + x_17
 + x_18 + x_19 + x_2 + x_20 + x_21 + x_22 + x_23 + x_24 + x_25 + x_26 + x_27
 + x_28 + x_29 + x_3 + x_30 + x_31 + x_32 + x_33 + x_34 + x_35 + x_36 + x_37
 + x_38 + x_39 + x_4 + x_40 + x_41 + x_42 + x_43 + x_44 + x_45 + x_46 + x_47
 + x_48 + x_49 + x_5 + x_50 + x_51 + x_52 + x_53 + x_54 + x_55 + x_6 + x_7
 + x_8 + x_9 >= 1
Cnstr7: x_0 + x_1 + x_10 + x_11 + x_12 + x_13 + x_14 + x_15 + x_16 + x_17
 + x_18 + x_19 + x_2 + x_20 + x_21 + x_22 + x_23 + x_24 + x_25 + x_26 + x_27
 + x_28 + x_29 + x_3 + x_30 + x_31 + x_32 + x_33 + x_34 + x_35 + x_36 + x_37
 + x_38 + x_39 + x_4 + x_40 + x_41 + x_42 + x_43 + x_44 + x_45 + x_46 + x_47
 + x_48 + x_49 + x_5 + x_50 + x_51 + x_52 + x_53 + x_54 + x_55 + x_56 + x_57
 + x_58 + x_59 + x_6 + x_7 + x_8 + x_9 >= 1
Cnstr8: x_0 + x_1 + x_10 + x_11 + x_12 + x_13 + x_14 + x_15 + x_16 + x_17
 + x_18 + x_19 + x_2 + x_20 + x_21 + x_22 + x_23 + x_24 + x_25 + x_26 + x_27
 + x_28 + x_29 + x_3 + x_30 + x_31 + x_32 + x_33 + x_34 + x_35 + x_36 + x_37
 + x_38 + x_39 + x_4 + x_40 + x_41 + x_42 + x_43 + x_44 + x_45 + x_46 + x_47
 + x_48 + x_49 + x_5 + x_50 + x_51 + x_52 + x_53 + x_54 + x_55 + x_56 + x_57
 + x_58 + x_59 + x_6 + x_60 + x_61 + x_62 + x_7 + x_8 + x_9 >= 1
Cnstr9: x_0 + x_1 + x_10 + x_11 + x_12 + x_13 + x_14 + x_15 + x_16 + x_17
 + x_18 + x_19 + x_2 + x_20 + x_21 + x_22 + x_23 + x_24 + x_25 + x_26 + x_27
 + x_28 + x_29 + x_3 + x_30 + x_31 + x_32 + x_33 + x_34 + x_35 + x_36 + x_37
 + x_38 + x_39 + x_4 + x_40 + x_41 + x_42 + x_43 + x_44 + x_45 + x_46 + x_47
 + x_48 + x_49 + x_5 + x_50 + x_51 + x_52 + x_53 + x_54 + x_55 + x_56 + x_57
 + x_58 + x_59 + x_6 + x_60 + x_61 + x_62 + x_63 + x_64 + x_7 + x_8 + x_9 >= 1
Binaries
x_0
x_1
x_10
x_11
x_12
x_13
x_14
x_15
x_16
x_17
x_18
x_19
x_2
x_20
x_21
x_22
x_23
x_24
x_25
x_26
x_27
x_28
x_29
x_3
x_30
x_31
x_32
x_33
x_34
x_35
x_36
x_37
x_38
x_39
x_4
x_40
x_41
x_42
x_43
x_44
x_45
x_46
x_47
x_48
x_49
x_5
x_50
x_51
x_52
x_53
x_54
x_55
x_56
x_57
x_58
x_59
x_6
x_60
x_61
x_62
x_63
x_64
x_65
x_7
x_8
x_9
End
